c 
c MolecularSimulation 0.9.3
c Simulation written: Jan 13 2012 -- 15:17:57
c Test: Distribution
c Input: ./data/testCNF/SWEEP_R9_K3_N16_M144_S000.cnf
c 
s UNSATISFIABLE
v 0
c algorithmTime:  13
c solutionMemory: 0
c mixCount:       429
c extractCount:   0
c appendCount:    250359
c splitCount:     429
c spliceCount:    118352
c purifyCount:    143
c 
